datasets/2-dimensional/CL_06_25_06.vbp
2
150 150 
25
79 30 30
43 32 72
53 74 4
45 67 88
65 30 54
23 87 64
97 69 90
91 74 26
77 66 94
73 36 28
42 82 72
56 89 49
53 47 54
77 55 19
40 77 28
38 24 61
38 73 84
28 29 23
28 44 67
82 55 53
21 27 54
23 30 16
52 82 9
99 68 54
22 60 77
