datasets/2-dimensional/CL_06_25_06.txt
150 150 
0 30 79 30 
1 72 43 32 
2 4 53 74 
3 88 45 67 
4 54 65 30 
5 64 23 87 
6 90 97 69 
7 26 91 74 
8 94 77 66 
9 28 73 36 
10 72 42 82 
11 49 56 89 
12 54 53 47 
13 19 77 55 
14 28 40 77 
15 61 38 24 
16 84 38 73 
17 23 28 29 
18 67 28 44 
19 53 82 55 
20 54 21 27 
21 16 23 30 
22 9 52 82 
23 54 99 68 
24 77 22 60 
